
Gurobi 10.0.0 (win64) logging started Tue Apr 16 23:49:42 2024

Set parameter LogFile to value "C:\Users\ealvarezq\Documents\GitHub\Comillas\Models\JointResearch\05. Models\06.Benchmarking\E.Representative_days_based_on_Line_Benefits_OptModel\IEEE118_mod1_ByStages_nc150/openStarNet_IEEE118_mod1_ByStages_nc150.log"
Set parameter Method to value 2
Set parameter MIPFocus to value 1
Set parameter Presolve to value 2
Set parameter RINS to value 100
Set parameter MIPGap to value 0.01
Set parameter Threads to value 9
Set parameter TimeLimit to value 259200
Set parameter IterationLimit to value 760000000
Gurobi Optimizer version 10.0.0 build v10.0.0rc2 (win64)

CPU model: Intel(R) Core(TM) i7-8700 CPU @ 3.20GHz, instruction set [SSE2|AVX|AVX2]
Thread count: 6 physical cores, 12 logical processors, using up to 9 threads

Optimize a model with 213154 rows, 157471 columns and 548949 nonzeros
Model fingerprint: 0x6f9af35d
Variable types: 157437 continuous, 34 integer (34 binary)
Coefficient statistics:
  Matrix range     [3e-04, 9e+03]
  Objective range  [1e+00, 1e+00]
  Bounds range     [1e-04, 3e+00]
  RHS range        [2e-04, 3e+00]
Presolve removed 144048 rows and 72337 columns
Presolve time: 0.94s
Presolved: 69106 rows, 85134 columns, 252706 nonzeros
Variable types: 85100 continuous, 34 integer (34 binary)
Root relaxation presolved: 69106 rows, 85134 columns, 252706 nonzeros

Root barrier log...

Ordering time: 0.01s

Barrier statistics:
 Dense cols : 34
 AA' NZ     : 3.127e+05
 Factor NZ  : 1.237e+06 (roughly 70 MB of memory)
 Factor Ops : 2.723e+07 (less than 1 second per iteration)
 Threads    : 8

                  Objective                Residual
Iter       Primal          Dual         Primal    Dual     Compl     Time
   0   8.88565470e+06 -2.98842603e+09  1.57e+01 3.46e+03  6.51e+04     1s
   1   2.12419322e+06 -1.16058169e+09  3.50e+00 1.04e-07  1.36e+04     1s
   2   5.26744552e+05 -3.53524887e+08  6.23e-01 1.04e-07  2.60e+03     2s
   3   2.75313066e+05 -9.02077641e+07  1.25e-01 1.31e-08  5.26e+02     2s
   4   1.88450973e+05 -1.16461531e+07  1.16e-02 1.14e-09  5.97e+01     2s
   5   1.16486222e+05 -4.18694649e+06  1.84e-03 5.06e-10  2.12e+01     2s
   6   7.84067749e+04 -3.18080568e+06  6.61e-04 3.82e-10  1.60e+01     2s
   7   5.51626686e+04 -8.78047408e+05  2.86e-04 1.09e-10  4.57e+00     2s
   8   2.41036042e+04 -1.81424333e+05  2.30e-05 1.71e-11  1.01e+00     2s
   9   1.91456176e+04 -8.56513228e+04  1.54e-05 1.15e-11  5.13e-01     2s
  10   9.72432510e+03 -4.30487888e+04  6.43e-06 7.15e-12  2.58e-01     2s
  11   4.69790463e+03 -8.08262410e+03  2.30e-06 4.92e-12  6.26e-02     2s
  12   2.71181825e+03 -2.67506222e+03  1.03e-06 4.21e-12  2.64e-02     2s
  13   1.97391614e+03 -1.31747663e+03  5.98e-07 8.45e-12  1.61e-02     2s
  14   1.62946804e+03 -5.41229095e+02  4.03e-07 5.70e-12  1.06e-02     2s
  15   1.43373270e+03 -2.22751192e+02  2.98e-07 5.70e-12  8.11e-03     2s
  16   1.29282770e+03  1.76783854e+02  2.24e-07 1.51e-11  5.47e-03     2s
  17   1.17637717e+03  4.27705888e+02  1.67e-07 9.14e-12  3.67e-03     2s
  18   1.08592514e+03  6.09403602e+02  1.29e-07 1.04e-11  2.33e-03     2s
  19   1.00954583e+03  6.60314838e+02  9.15e-08 1.81e-11  1.71e-03     2s
  20   9.92490730e+02  7.01427463e+02  8.27e-08 6.30e-12  1.43e-03     2s
  21   9.82805125e+02  7.38011068e+02  7.78e-08 8.20e-12  1.20e-03     2s
  22   8.99048619e+02  7.66166785e+02  3.95e-08 4.78e-12  6.51e-04     2s
  23   8.75730075e+02  7.86476385e+02  2.75e-08 4.84e-12  4.37e-04     2s
  24   8.57594976e+02  7.94954226e+02  1.83e-08 5.85e-12  3.07e-04     2s
  25   8.46593674e+02  8.01459260e+02  1.24e-08 2.93e-12  2.21e-04     2s
  26   8.39106075e+02  8.08193014e+02  8.45e-09 5.26e-12  1.51e-04     2s
  27   8.34931578e+02  8.14819170e+02  6.26e-09 7.18e-12  9.85e-05     2s
  28   8.30767231e+02  8.17178986e+02  4.32e-09 7.27e-12  6.65e-05     2s
  29   8.29222645e+02  8.18425996e+02  3.51e-09 4.85e-12  5.29e-05     3s
  30   8.26729563e+02  8.19553565e+02  2.21e-09 5.49e-12  3.51e-05     3s
  31   8.24291288e+02  8.20806818e+02  9.79e-10 7.72e-12  1.71e-05     3s
  32   8.23244378e+02  8.21709919e+02  4.47e-10 7.76e-12  7.51e-06     3s
  33   8.23123783e+02  8.21914430e+02  3.87e-10 4.68e-12  5.92e-06     3s
  34   8.22812976e+02  8.22114085e+02  2.31e-10 6.17e-12  3.42e-06     3s
  35   8.22634999e+02  8.22219648e+02  1.44e-10 2.24e-11  2.03e-06     3s
  36   8.22473502e+02  8.22262511e+02  1.03e-10 3.95e-12  1.03e-06     3s
  37   8.22419816e+02  8.22297124e+02  5.18e-10 5.83e-12  6.01e-07     3s
  38   8.22370620e+02  8.22316009e+02  7.96e-10 9.69e-12  2.67e-07     3s
  39   8.22334837e+02  8.22329621e+02  4.63e-10 1.20e-11  2.55e-08     3s
  40   8.22333293e+02  8.22331723e+02  2.01e-10 5.03e-12  7.69e-09     3s
  41   8.22332546e+02  8.22332338e+02  8.41e-10 7.03e-12  1.02e-09     3s
  42   8.22332447e+02  8.22332406e+02  1.64e-09 1.16e-11  2.02e-10     3s
  43   8.22332413e+02  8.22332409e+02  4.53e-10 7.28e-12  1.79e-11     3s

Barrier solved model in 43 iterations and 2.99 seconds (3.13 work units)
Optimal objective 8.22332413e+02


Root relaxation: objective 8.223324e+02, 6382 iterations, 2.64 seconds (3.09 work units)

    Nodes    |    Current Node    |     Objective Bounds      |     Work
 Expl Unexpl |  Obj  Depth IntInf | Incumbent    BestBd   Gap | It/Node Time

     0     0  822.33241    0   22          -  822.33241      -     -    4s
H    0     0                    7013.1151935  822.33241  88.3%     -   13s
H    0     0                    2805.8900762  822.33241  70.7%     -   14s
     0     0  837.71219    0   22 2805.89008  837.71219  70.1%     -   21s
H    0     0                    2609.5942861  837.71219  67.9%     -   29s
     0     0  842.67565    0   22 2609.59429  842.67565  67.7%     -   30s
     0     0  842.67565    0   22 2609.59429  842.67565  67.7%     -   30s
     0     0  842.67565    0   20 2609.59429  842.67565  67.7%     -   35s
     0     0  842.67565    0   20 2609.59429  842.67565  67.7%     -   36s
     0     0  842.67565    0   20 2609.59429  842.67565  67.7%     -   36s
     0     0  842.67565    0   20 2609.59429  842.67565  67.7%     -   38s
     0     0  842.67565    0   20 2609.59429  842.67565  67.7%     -   38s
     0     0  842.67565    0   20 2609.59429  842.67565  67.7%     -   40s
     0     0  842.67565    0   20 2609.59429  842.67565  67.7%     -   41s
     0     0  842.67565    0   20 2609.59429  842.67565  67.7%     -   43s
H    0     0                     938.8690242  842.67565  10.2%     -  559s
     0     2  842.67565    0   20  938.86902  842.67565  10.2%     -  560s
     1     4  869.41866    1   20  938.86902  842.67565  10.2%  6217  568s
     3     8  892.22118    2   20  938.86902  862.59866  8.12%  4332  583s
     7    10     cutoff    3       938.86902  871.08683  7.22%  5587  623s
    15    11  883.69835    4   16  938.86902  877.95362  6.49%  5579  665s
    24    18  886.37582    5   15  938.86902  884.19361  5.82%  6209  731s
    33    21  894.66657    6   15  938.86902  886.39142  5.59%  7147  756s
    42    24  904.48628    7   14  938.86902  886.39142  5.59%  6490  764s
    51    30     cutoff    8       938.86902  886.39142  5.59%  5939  784s
    63    31  906.28611    7   13  938.86902  886.39142  5.59%  5188  799s
    74    40  906.80963    8   12  938.86902  886.39142  5.59%  4623  812s
    89    46  928.95724   10   10  938.86902  886.39142  5.59%  4158  828s
   105    44  933.18174   12    8  938.86902  886.39142  5.59%  3787  843s
   125    46     cutoff   14       938.86902  893.59996  4.82%  3507  860s
   145    59  904.88242    7   14  938.86902  893.62398  4.82%  3311  867s
   176    59  905.69591    8   12  938.86902  893.62398  4.82%  2823  883s
   205    64  920.71354   10   10  938.86902  893.62398  4.82%  2597  900s
   230    70  932.59784   13    7  938.86902  893.62398  4.82%  2482  916s
   273    62     cutoff   18       938.86902  903.12440  3.81%  2211  937s
   303    60  908.94077    8   12  938.86902  903.15395  3.80%  2176  957s
   325    63  913.57440    9   11  938.86902  904.66814  3.64%  2115  970s
   358    66     cutoff   11       938.86902  904.66814  3.64%  2053  990s
   406    52     cutoff   10       938.86902  904.66814  3.64%  1914 1018s
   443    45  921.07177    9   11  938.86902  904.66814  3.64%  1890 1045s
   482    15  932.12277   12    8  938.86902  921.08548  1.89%  1871 1084s
   532     3     cutoff   15       938.86902  927.71294  1.19%  1891 1096s
*  552     3              24     938.1330158  935.70504  0.26%  1878 1096s

Cutting planes:
  Implied bound: 262
  MIR: 524

Explored 556 nodes (1053037 simplex iterations) in 1096.48 seconds (2436.49 work units)
Thread count was 9 (of 12 available processors)

Solution count 5: 938.133 938.869 2609.59 ... 7013.12

Optimal solution found (tolerance 1.00e-02)
Best objective 9.381330157541e+02, best bound 9.357050401090e+02, gap 0.2588%

Gurobi 10.0.0 (win64) logging started Wed Apr 17 00:08:08 2024

Set parameter LogFile to value "C:\Users\ealvarezq\Documents\GitHub\Comillas\Models\JointResearch\05. Models\06.Benchmarking\E.Representative_days_based_on_Line_Benefits_OptModel\IEEE118_mod1_ByStages_nc150/openStarNet_IEEE118_mod1_ByStages_nc150.log"
Set parameter Method to value 2
Set parameter MIPFocus to value 1
Set parameter Presolve to value 2
Set parameter RINS to value 100
Set parameter MIPGap to value 0.01
Set parameter Threads to value 9
Set parameter TimeLimit to value 259200
Set parameter IterationLimit to value 760000000
Gurobi Optimizer version 10.0.0 build v10.0.0rc2 (win64)

CPU model: Intel(R) Core(TM) i7-8700 CPU @ 3.20GHz, instruction set [SSE2|AVX|AVX2]
Thread count: 6 physical cores, 12 logical processors, using up to 9 threads

Optimize a model with 213154 rows, 157437 columns and 528515 nonzeros
Model fingerprint: 0x8ba7c6bf
Coefficient statistics:
  Matrix range     [3e-04, 9e+03]
  Objective range  [1e+00, 1e+00]
  Bounds range     [1e-04, 3e+00]
  RHS range        [2e-04, 3e+02]
Presolve removed 158459 rows and 68546 columns
Presolve time: 0.28s
Presolved: 54695 rows, 89354 columns, 212869 nonzeros

Ordering time: 0.01s

Barrier statistics:
 AA' NZ     : 1.796e+05
 Factor NZ  : 7.189e+05 (roughly 60 MB of memory)
 Factor Ops : 1.039e+07 (less than 1 second per iteration)
 Threads    : 9

                  Objective                Residual
Iter       Primal          Dual         Primal    Dual     Compl     Time
   0   1.51653698e+07 -1.79196226e+09  9.46e+01 1.76e+02  3.68e+04     0s
   1   1.63548706e+06 -5.47091362e+08  9.10e+00 3.64e-12  4.84e+03     0s
   2   3.90906045e+05 -9.36683441e+07  1.46e+00 3.64e-12  6.81e+02     0s
   3   1.67889607e+05 -1.22685567e+07  3.44e-02 2.73e-12  6.57e+01     0s
   4   9.33671326e+04 -1.64444271e+06  2.32e-03 1.18e-11  8.93e+00     0s
   5   4.74273378e+04 -4.87077312e+05  5.65e-04 3.41e-12  2.74e+00     1s
   6   2.76965741e+04 -1.62016393e+05  2.02e-04 1.14e-12  9.72e-01     1s
   7   1.48327954e+04 -4.84116199e+04  8.02e-05 6.06e-13  3.24e-01     1s
   8   5.97821606e+03 -1.51447966e+04  2.02e-05 6.35e-13  1.08e-01     1s
   9   4.29314728e+03 -7.36381140e+03  1.30e-05 1.25e-12  5.97e-02     1s
  10   2.63161322e+03 -2.98519430e+03  6.24e-06 7.00e-13  2.88e-02     1s
  11   2.10432401e+03 -1.36716169e+03  4.16e-06 8.35e-13  1.78e-02     1s
  12   1.59672064e+03 -1.49173650e+02  2.22e-06 5.41e-13  8.95e-03     1s
  13   1.34477097e+03  3.14238360e+02  1.31e-06 6.65e-13  5.28e-03     1s
  14   1.18713162e+03  6.77642230e+02  7.67e-07 5.24e-13  2.61e-03     1s
  15   1.05117605e+03  8.17995008e+02  3.24e-07 7.97e-13  1.19e-03     1s
  16   1.00994391e+03  8.77160592e+02  2.00e-07 5.99e-13  6.80e-04     1s
  17   9.88432554e+02  9.00987283e+02  1.37e-07 7.15e-13  4.48e-04     1s
  18   9.72284099e+02  9.14419016e+02  9.17e-08 5.56e-13  2.97e-04     1s
  19   9.62904925e+02  9.21831314e+02  6.58e-08 6.69e-13  2.10e-04     1s
  20   9.55489082e+02  9.29407972e+02  4.56e-08 5.08e-13  1.34e-04     1s
  21   9.49883636e+02  9.33324347e+02  3.04e-08 5.63e-13  8.49e-05     1s
  22   9.42527652e+02  9.36078064e+02  1.12e-08 7.33e-13  3.31e-05     1s
  23   9.40408232e+02  9.36859510e+02  5.59e-09 5.52e-13  1.82e-05     1s
  24   9.39357275e+02  9.37448235e+02  2.96e-09 9.43e-13  9.78e-06     1s
  25   9.38820343e+02  9.37729690e+02  1.84e-09 4.77e-13  5.59e-06     1s
  26   9.38367753e+02  9.37960388e+02  7.16e-10 6.21e-13  2.09e-06     1s
  27   9.38236972e+02  9.38056581e+02  8.19e-10 5.86e-13  9.24e-07     1s
  28   9.38144875e+02  9.38118362e+02  8.60e-10 7.16e-13  1.36e-07     1s
  29   9.38133715e+02  9.38131982e+02  1.14e-09 8.06e-13  8.88e-09     1s
  30   9.38133028e+02  9.38132930e+02  3.89e-10 5.63e-13  5.05e-10     1s
  31   9.38133018e+02  9.38133013e+02  2.20e-10 5.08e-13  2.42e-11     1s

Barrier solved model in 31 iterations and 1.15 seconds (1.16 work units)
Optimal objective 9.38133018e+02

Crossover log...

   15413 DPushes remaining with DInf 0.0000000e+00                 1s
       0 DPushes remaining with DInf 0.0000000e+00                 1s

     496 PPushes remaining with PInf 0.0000000e+00                 1s
       0 PPushes remaining with PInf 0.0000000e+00                 1s

  Push phase complete: Pinf 0.0000000e+00, Dinf 2.2389717e-12      1s

Extra simplex iterations after uncrush: 1
Iteration    Objective       Primal Inf.    Dual Inf.      Time
    6447    9.3813302e+02   0.000000e+00   0.000000e+00      2s

Solved in 6447 iterations and 1.82 seconds (1.87 work units)
Optimal objective  9.381330157e+02

Gurobi 11.0.0 (linux64) logging started Wed Aug  7 00:23:35 2024

Set parameter LogFile to value "/lustre1/scratch/348/vsc34888/JointResearch/05.Models/06.Benchmarking/E.Representative_days_based_on_Line_Benefits_OptModel/IEEE118_mod1_ByStages_nc150/openStarNet_IEEE118_mod1_ByStages_nc150.log"
Set parameter Method to value 2
Set parameter MIPFocus to value 1
Set parameter Presolve to value 2
Set parameter RINS to value 100
Set parameter MIPGap to value 0.01
Set parameter Threads to value 36
Set parameter TimeLimit to value 259200
Set parameter IterationLimit to value 760000000
Gurobi Optimizer version 11.0.0 build v11.0.0rc2 (linux64 - "Rocky Linux 8.9 (Green Obsidian)")

CPU model: Intel(R) Xeon(R) Gold 6240 CPU @ 2.60GHz, instruction set [SSE2|AVX|AVX2|AVX512]
Thread count: 36 physical cores, 36 logical processors, using up to 36 threads

Optimize a model with 213153 rows, 157437 columns and 528514 nonzeros
Model fingerprint: 0x5713f7c1
Coefficient statistics:
  Matrix range     [3e-04, 9e+03]
  Objective range  [1e+00, 1e+00]
  Bounds range     [1e-04, 3e+00]
  RHS range        [2e-04, 3e+00]
Presolve removed 161480 rows and 73730 columns
Presolve time: 0.32s
Presolved: 51673 rows, 86093 columns, 205867 nonzeros

Ordering time: 0.01s

Barrier statistics:
 AA' NZ     : 1.832e+05
 Factor NZ  : 6.652e+05 (roughly 60 MB of memory)
 Factor Ops : 9.458e+06 (less than 1 second per iteration)
 Threads    : 36

                  Objective                Residual
Iter       Primal          Dual         Primal    Dual     Compl     Time
   0   1.67632791e+07 -2.32752107e+09  1.11e+02 2.04e+02  6.40e+04     0s
   1   1.77596007e+06 -8.27329825e+08  1.04e+01 5.77e-12  8.21e+03     0s
   2   4.88950308e+05 -1.71541726e+08  1.91e+00 5.70e-12  1.37e+03     0s
   3   2.11897346e+05 -2.27060363e+07  4.32e-02 5.48e-12  1.26e+02     1s
   4   1.42984305e+05 -3.36654383e+06  2.07e-03 5.00e-12  1.86e+01     1s
   5   9.96920880e+04 -1.09718343e+06  8.94e-04 1.59e-12  6.35e+00     1s
   6   7.11142709e+04 -4.73295314e+05  4.73e-04 9.09e-13  2.89e+00     1s
   7   5.01205065e+04 -2.19107451e+05  2.47e-04 1.82e-12  1.43e+00     1s
   8   3.38295419e+04 -8.53959314e+04  1.18e-04 2.73e-12  6.32e-01     1s
   9   2.41885679e+04 -3.13814854e+04  5.91e-05 9.09e-13  2.95e-01     1s
  10   2.07203840e+04 -1.50231349e+04  4.15e-05 1.82e-12  1.90e-01     1s
  11   1.76746819e+04 -3.07358396e+03  2.74e-05 1.82e-12  1.10e-01     1s
  12   1.41611601e+04  5.11325641e+03  1.14e-05 9.09e-13  4.80e-02     1s
  13   1.26664252e+04  7.76796333e+03  5.55e-06 9.09e-13  2.60e-02     1s
  14   1.20176457e+04  9.21862030e+03  3.24e-06 4.55e-13  1.48e-02     1s
  15   1.16985189e+04  9.80900983e+03  2.15e-06 9.09e-13  1.00e-02     1s
  16   1.14429219e+04  1.04128336e+04  1.31e-06 4.55e-13  5.46e-03     1s
  17   1.12532895e+04  1.06553296e+04  7.22e-07 9.09e-13  3.17e-03     1s
  18   1.11259015e+04  1.08224780e+04  3.44e-07 9.09e-13  1.61e-03     1s
  19   1.10668365e+04  1.09004880e+04  1.79e-07 1.82e-12  8.82e-04     1s
  20   1.10376415e+04  1.09656429e+04  1.02e-07 3.64e-12  3.82e-04     1s
  21   1.10212999e+04  1.09757670e+04  6.08e-08 1.82e-12  2.41e-04     1s
  22   1.10055646e+04  1.09884527e+04  2.26e-08 1.82e-12  9.07e-05     1s
  23   1.09977462e+04  1.09934359e+04  4.59e-09 9.09e-13  2.29e-05     1s
  24   1.09959575e+04  1.09947849e+04  9.37e-10 9.09e-13  6.22e-06     1s
  25   1.09956452e+04  1.09952291e+04  6.57e-10 9.09e-13  2.21e-06     1s
  26   1.09955261e+04  1.09954000e+04  3.98e-10 9.09e-13  6.69e-07     1s
  27   1.09954886e+04  1.09954516e+04  3.12e-10 9.09e-13  1.96e-07     1s
  28   1.09954817e+04  1.09954748e+04  3.09e-10 9.09e-13  3.67e-08     1s
  29   1.09954801e+04  1.09954797e+04  2.26e-10 1.82e-12  2.18e-09     1s
  30   1.09954800e+04  1.09954800e+04  1.75e-10 4.55e-13  3.08e-10     1s

Barrier solved model in 30 iterations and 1.25 seconds (1.04 work units)
Optimal objective 1.09954800e+04

Crossover log...

   15145 DPushes remaining with DInf 0.0000000e+00                 1s
       0 DPushes remaining with DInf 0.0000000e+00                 1s

    1207 PPushes remaining with PInf 0.0000000e+00                 1s
       0 PPushes remaining with PInf 0.0000000e+00                 2s

  Push phase complete: Pinf 0.0000000e+00, Dinf 3.0285589e-11      2s

Extra simplex iterations after uncrush: 20
Iteration    Objective       Primal Inf.    Dual Inf.      Time
    5819    1.0995480e+04   0.000000e+00   0.000000e+00      2s

Solved in 5819 iterations and 1.85 seconds (1.33 work units)
Optimal objective  1.099548000e+04

Gurobi 11.0.0 (linux64) logging started Wed Aug  7 00:24:17 2024

Set parameter LogFile to value "/lustre1/scratch/348/vsc34888/JointResearch/05.Models/06.Benchmarking/E.Representative_days_based_on_Line_Benefits_OptModel/IEEE118_mod1_ByStages_nc150/openStarNet_IEEE118_mod1_ByStages_nc150.log"
Set parameter Method to value 2
Set parameter MIPFocus to value 1
Set parameter Presolve to value 2
Set parameter RINS to value 100
Set parameter MIPGap to value 0.01
Set parameter Threads to value 36
Set parameter TimeLimit to value 259200
Set parameter IterationLimit to value 760000000
Gurobi Optimizer version 11.0.0 build v11.0.0rc2 (linux64 - "Rocky Linux 8.9 (Green Obsidian)")

CPU model: Intel(R) Xeon(R) Gold 6240 CPU @ 2.60GHz, instruction set [SSE2|AVX|AVX2|AVX512]
Thread count: 36 physical cores, 36 logical processors, using up to 36 threads

Optimize a model with 213153 rows, 157437 columns and 528514 nonzeros
Model fingerprint: 0x5713f7c1
Coefficient statistics:
  Matrix range     [3e-04, 9e+03]
  Objective range  [1e+00, 1e+00]
  Bounds range     [1e-04, 3e+00]
  RHS range        [2e-04, 3e+00]
Presolve removed 161480 rows and 73730 columns
Presolve time: 0.32s
Presolved: 51673 rows, 86093 columns, 205867 nonzeros

Ordering time: 0.01s

Barrier statistics:
 AA' NZ     : 1.832e+05
 Factor NZ  : 6.652e+05 (roughly 60 MB of memory)
 Factor Ops : 9.458e+06 (less than 1 second per iteration)
 Threads    : 36

                  Objective                Residual
Iter       Primal          Dual         Primal    Dual     Compl     Time
   0   1.67632791e+07 -2.32752107e+09  1.11e+02 2.04e+02  6.40e+04     0s
   1   1.77596007e+06 -8.27329825e+08  1.04e+01 5.77e-12  8.21e+03     0s
   2   4.88950308e+05 -1.71541726e+08  1.91e+00 5.70e-12  1.37e+03     0s
   3   2.11897346e+05 -2.27060363e+07  4.32e-02 5.48e-12  1.26e+02     0s
   4   1.42984305e+05 -3.36654383e+06  2.07e-03 5.00e-12  1.86e+01     1s
   5   9.96920880e+04 -1.09718343e+06  8.94e-04 1.59e-12  6.35e+00     1s
   6   7.11142709e+04 -4.73295314e+05  4.73e-04 9.09e-13  2.89e+00     1s
   7   5.01205065e+04 -2.19107451e+05  2.47e-04 1.82e-12  1.43e+00     1s
   8   3.38295419e+04 -8.53959314e+04  1.18e-04 2.73e-12  6.32e-01     1s
   9   2.41885679e+04 -3.13814854e+04  5.91e-05 9.09e-13  2.95e-01     1s
  10   2.07203840e+04 -1.50231349e+04  4.15e-05 1.82e-12  1.90e-01     1s
  11   1.76746819e+04 -3.07358396e+03  2.74e-05 1.82e-12  1.10e-01     1s
  12   1.41611601e+04  5.11325641e+03  1.14e-05 9.09e-13  4.80e-02     1s
  13   1.26664252e+04  7.76796333e+03  5.55e-06 9.09e-13  2.60e-02     1s
  14   1.20176457e+04  9.21862030e+03  3.24e-06 4.55e-13  1.48e-02     1s
  15   1.16985189e+04  9.80900983e+03  2.15e-06 9.09e-13  1.00e-02     1s
  16   1.14429219e+04  1.04128336e+04  1.31e-06 4.55e-13  5.46e-03     1s
  17   1.12532895e+04  1.06553296e+04  7.22e-07 9.09e-13  3.17e-03     1s
  18   1.11259015e+04  1.08224780e+04  3.44e-07 9.09e-13  1.61e-03     1s
  19   1.10668365e+04  1.09004880e+04  1.79e-07 1.82e-12  8.82e-04     1s
  20   1.10376415e+04  1.09656429e+04  1.02e-07 3.64e-12  3.82e-04     1s
  21   1.10212999e+04  1.09757670e+04  6.08e-08 1.82e-12  2.41e-04     1s
  22   1.10055646e+04  1.09884527e+04  2.26e-08 1.82e-12  9.07e-05     1s
  23   1.09977462e+04  1.09934359e+04  4.59e-09 9.09e-13  2.29e-05     1s
  24   1.09959575e+04  1.09947849e+04  9.37e-10 9.09e-13  6.22e-06     1s
  25   1.09956452e+04  1.09952291e+04  6.57e-10 9.09e-13  2.21e-06     1s
  26   1.09955261e+04  1.09954000e+04  3.98e-10 9.09e-13  6.69e-07     1s
  27   1.09954886e+04  1.09954516e+04  3.12e-10 9.09e-13  1.96e-07     1s
  28   1.09954817e+04  1.09954748e+04  3.09e-10 9.09e-13  3.67e-08     1s
  29   1.09954801e+04  1.09954797e+04  2.26e-10 1.82e-12  2.18e-09     1s
  30   1.09954800e+04  1.09954800e+04  1.75e-10 4.55e-13  3.08e-10     1s

Barrier solved model in 30 iterations and 1.17 seconds (1.04 work units)
Optimal objective 1.09954800e+04

Crossover log...

   15145 DPushes remaining with DInf 0.0000000e+00                 1s
       0 DPushes remaining with DInf 0.0000000e+00                 1s

    1207 PPushes remaining with PInf 0.0000000e+00                 1s
       0 PPushes remaining with PInf 0.0000000e+00                 2s

  Push phase complete: Pinf 0.0000000e+00, Dinf 3.0285589e-11      2s

Extra simplex iterations after uncrush: 20
Iteration    Objective       Primal Inf.    Dual Inf.      Time
    5819    1.0995480e+04   0.000000e+00   0.000000e+00      2s

Solved in 5819 iterations and 1.81 seconds (1.33 work units)
Optimal objective  1.099548000e+04
